networks/zoo_20_54/zoo_20_54.txt
Number of groups: 9
Flow 4: {7 6} {6 16} 
Flow 7: {1 8} {8 3} {3 9} {9 19} 
Flow 9: {8 1} {1 11} 
Flow 13: {2 3} {3 7} {7 17} 
Flow 28: {4 3} {3 5} {5 15} 
Flow 31: {5 3} {3 2} {2 12} 
Flow 36: {6 7} {7 3} {3 8} {8 18} 
Flow 52: {9 3} {3 10} {10 20} 
Flow 53: {10 3} {3 13} 
Time taken running everything: 0 seconds
