networks/zoo_20_54/zoo_20_54.sol
<?xml version = "1.0" encoding="UTF-8" standalone="yes"?>
<CPLEXSolution version="1.2">
 <header
   problemName="networks/zoo_20_54/zoo_20_54.lp"
   solutionName="incumbent"
   solutionIndex="-1"
   objectiveValue="9"
   solutionTypeValue="3"
   solutionTypeString="primal"
   solutionStatusValue="101"
   solutionStatusString="integer optimal solution"
   solutionMethodString="mip"
   primalFeasible="1"
   dualFeasible="1"
   MIPNodes="0"
   MIPIterations="252"
   writeLevel="3"/>
 <quality
   epInt="1.0000000000000001e-05"
   epRHS="9.9999999999999995e-07"
   maxIntInfeas="0"
   maxPrimalInfeas="0"
   maxX="3"
   maxSlack="9"/>
 <variables>
  <variable name="Y(4,6)" index="62" value="1"/>
  <variable name="Y(7,9)" index="122" value="1"/>
  <variable name="Y(9,1)" index="152" value="1"/>
  <variable name="Y(13,7)" index="234" value="1"/>
  <variable name="Y(28,5)" index="517" value="1"/>
  <variable name="Y(31,2)" index="571" value="1"/>
  <variable name="Y(36,8)" index="672" value="1"/>
  <variable name="Y(52,10)" index="978" value="1"/>
  <variable name="Y(53,3)" index="990" value="1"/>
  <variable name="X(1,8,7)" index="1032" value="1"/>
  <variable name="X(1,11,9)" index="1088" value="1"/>
  <variable name="X(2,3,13)" index="1146" value="1"/>
  <variable name="X(2,12,31)" index="1218" value="1"/>
  <variable name="X(3,2,31)" index="1272" value="1"/>
  <variable name="X(3,5,28)" index="1323" value="1"/>
  <variable name="X(3,7,13)" index="1362" value="1"/>
  <variable name="X(3,8,36)" index="1439" value="1"/>
  <variable name="X(3,9,7)" index="1464" value="1"/>
  <variable name="X(3,10,52)" index="1563" value="1"/>
  <variable name="X(3,13,53)" index="1618" value="1"/>
  <variable name="X(4,3,28)" index="1647" value="1"/>
  <variable name="X(5,3,31)" index="1704" value="1"/>
  <variable name="X(5,15,28)" index="1755" value="1"/>
  <variable name="X(6,7,36)" index="1817" value="1"/>
  <variable name="X(6,16,4)" index="1839" value="1"/>
  <variable name="X(7,3,36)" index="1925" value="1"/>
  <variable name="X(7,6,4)" index="1947" value="1"/>
  <variable name="X(7,17,13)" index="2010" value="1"/>
  <variable name="X(8,1,9)" index="2060" value="1"/>
  <variable name="X(8,3,7)" index="2112" value="1"/>
  <variable name="X(8,18,36)" index="2195" value="1"/>
  <variable name="X(9,3,52)" index="2265" value="1"/>
  <variable name="X(9,19,7)" index="2274" value="1"/>
  <variable name="X(10,3,53)" index="2374" value="1"/>
  <variable name="X(10,20,52)" index="2427" value="1"/>
  <variable name="C(4,6)" index="2445" value="1"/>
  <variable name="C(7,8)" index="2453" value="1"/>
  <variable name="C(7,3)" index="2454" value="2"/>
  <variable name="C(7,9)" index="2455" value="3"/>
  <variable name="C(9,1)" index="2463" value="1"/>
  <variable name="C(13,3)" index="2474" value="1"/>
  <variable name="C(13,7)" index="2475" value="2"/>
  <variable name="C(28,3)" index="2513" value="1"/>
  <variable name="C(28,5)" index="2514" value="2"/>
  <variable name="C(31,3)" index="2522" value="1"/>
  <variable name="C(31,2)" index="2523" value="2"/>
  <variable name="C(36,7)" index="2537" value="1"/>
  <variable name="C(36,3)" index="2538" value="2"/>
  <variable name="C(36,8)" index="2539" value="3"/>
  <variable name="C(52,3)" index="2582" value="1"/>
  <variable name="C(52,10)" index="2583" value="2"/>
  <variable name="C(53,3)" index="2585" value="1"/>
 </variables>
</CPLEXSolution>
